language Essence 1.3

letting costTC be
        function((1, 1) --> 23, (1, 2) --> 22, (1, 3) --> 14, (1, 4) --> 4, (2, 1) --> 17, (2, 2) --> 26, (2, 3) --> 8,
                 (2, 4) --> 24, (3, 1) --> 16, (3, 2) --> 15, (3, 3) --> 10, (3, 4) --> 2, (4, 1) --> 20, (4, 2) --> 24,
                 (4, 3) --> 18, (4, 4) --> 14, (5, 1) --> 2, (5, 2) --> 13, (5, 3) --> 14, (5, 4) --> 8, (6, 1) --> 5,
                 (6, 2) --> 22, (6, 3) --> 25, (6, 4) --> 18, (7, 1) --> 17, (7, 2) --> 23, (7, 3) --> 8, (7, 4) --> 10,
                 (8, 1) --> 19, (8, 2) --> 20, (8, 3) --> 12, (8, 4) --> 11, (9, 1) --> 12, (9, 2) --> 11,
                 (9, 3) --> 10, (9, 4) --> 4, (10, 1) --> 6, (10, 2) --> 17, (10, 3) --> 20, (10, 4) --> 17,
                 (11, 1) --> 26, (11, 2) --> 9, (11, 3) --> 24, (11, 4) --> 4, (12, 1) --> 7, (12, 2) --> 10,
                 (12, 3) --> 2, (12, 4) --> 26, (13, 1) --> 2, (13, 2) --> 26, (13, 3) --> 16, (13, 4) --> 7,
                 (14, 1) --> 26, (14, 2) --> 6, (14, 3) --> 16, (14, 4) --> 4, (15, 1) --> 10, (15, 2) --> 21,
                 (15, 3) --> 19, (15, 4) --> 25, (16, 1) --> 12, (16, 2) --> 26, (16, 3) --> 12, (16, 4) --> 17,
                 (17, 1) --> 10, (17, 2) --> 8, (17, 3) --> 7, (17, 4) --> 6, (18, 1) --> 6, (18, 2) --> 26,
                 (18, 3) --> 21, (18, 4) --> 3, (19, 1) --> 20, (19, 2) --> 19, (19, 3) --> 2, (19, 4) --> 1,
                 (20, 1) --> 18, (20, 2) --> 20, (20, 3) --> 12, (20, 4) --> 21, (21, 1) --> 21, (21, 2) --> 25,
                 (21, 3) --> 4, (21, 4) --> 17, (22, 1) --> 26, (22, 2) --> 13, (22, 3) --> 15, (22, 4) --> 24,
                 (23, 1) --> 17, (23, 2) --> 26, (23, 3) --> 9, (23, 4) --> 20, (24, 1) --> 24, (24, 2) --> 19,
                 (24, 3) --> 15, (24, 4) --> 8, (25, 1) --> 26, (25, 2) --> 11, (25, 3) --> 22, (25, 4) --> 9,
                 (26, 1) --> 15, (26, 2) --> 20, (26, 3) --> 2, (26, 4) --> 13, (27, 1) --> 12, (27, 2) --> 25,
                 (27, 3) --> 9, (27, 4) --> 1, (28, 1) --> 21, (28, 2) --> 7, (28, 3) --> 25, (28, 4) --> 12,
                 (29, 1) --> 24, (29, 2) --> 25, (29, 3) --> 23, (29, 4) --> 5, (30, 1) --> 8, (30, 2) --> 1,
                 (30, 3) --> 1, (30, 4) --> 23, (31, 1) --> 10, (31, 2) --> 4, (31, 3) --> 1, (31, 4) --> 20,
                 (32, 1) --> 9, (32, 2) --> 19, (32, 3) --> 4, (32, 4) --> 1, (33, 1) --> 18, (33, 2) --> 17,
                 (33, 3) --> 9, (33, 4) --> 9, (34, 1) --> 15, (34, 2) --> 1, (34, 3) --> 6, (34, 4) --> 5,
                 (35, 1) --> 13, (35, 2) --> 2, (35, 3) --> 9, (35, 4) --> 17, (36, 1) --> 18, (36, 2) --> 23,
                 (36, 3) --> 23, (36, 4) --> 2, (37, 1) --> 24, (37, 2) --> 21, (37, 3) --> 21, (37, 4) --> 4,
                 (38, 1) --> 14, (38, 2) --> 10, (38, 3) --> 18, (38, 4) --> 10, (39, 1) --> 10, (39, 2) --> 13,
                 (39, 3) --> 4, (39, 4) --> 3, (40, 1) --> 19, (40, 2) --> 18, (40, 3) --> 9, (40, 4) --> 3,
                 (41, 1) --> 26, (41, 2) --> 7, (41, 3) --> 12, (41, 4) --> 6)
letting costWT be
        function((1, 1) --> 2, (1, 2) --> 1, (1, 3) --> 3, (1, 4) --> 2, (1, 5) --> 3, (1, 6) --> 2, (1, 7) --> 1,
                 (1, 8) --> 3, (1, 9) --> 1, (1, 10) --> 1, (1, 11) --> 1, (1, 12) --> 1, (1, 13) --> 2, (1, 14) --> 2,
                 (1, 15) --> 3, (1, 16) --> 3, (1, 17) --> 1, (1, 18) --> 1, (1, 19) --> 2, (1, 20) --> 3,
                 (1, 21) --> 2, (1, 22) --> 3, (1, 23) --> 2, (1, 24) --> 2, (1, 25) --> 2, (1, 26) --> 3,
                 (1, 27) --> 1, (1, 28) --> 3, (1, 29) --> 2, (1, 30) --> 2, (1, 31) --> 2, (1, 32) --> 1,
                 (1, 33) --> 1, (1, 34) --> 3, (1, 35) --> 2, (1, 36) --> 1, (1, 37) --> 2, (1, 38) --> 1,
                 (1, 39) --> 2, (1, 40) --> 1, (1, 41) --> 1, (2, 1) --> 3, (2, 2) --> 2, (2, 3) --> 2, (2, 4) --> 3,
                 (2, 5) --> 1, (2, 6) --> 3, (2, 7) --> 1, (2, 8) --> 1, (2, 9) --> 2, (2, 10) --> 2, (2, 11) --> 3,
                 (2, 12) --> 1, (2, 13) --> 1, (2, 14) --> 3, (2, 15) --> 3, (2, 16) --> 1, (2, 17) --> 1,
                 (2, 18) --> 3, (2, 19) --> 1, (2, 20) --> 2, (2, 21) --> 2, (2, 22) --> 2, (2, 23) --> 3,
                 (2, 24) --> 2, (2, 25) --> 1, (2, 26) --> 2, (2, 27) --> 2, (2, 28) --> 3, (2, 29) --> 1,
                 (2, 30) --> 3, (2, 31) --> 2, (2, 32) --> 2, (2, 33) --> 1, (2, 34) --> 1, (2, 35) --> 1,
                 (2, 36) --> 3, (2, 37) --> 2, (2, 38) --> 1, (2, 39) --> 3, (2, 40) --> 3, (2, 41) --> 2, (3, 1) --> 2,
                 (3, 2) --> 1, (3, 3) --> 2, (3, 4) --> 1, (3, 5) --> 1, (3, 6) --> 3, (3, 7) --> 3, (3, 8) --> 2,
                 (3, 9) --> 1, (3, 10) --> 2, (3, 11) --> 1, (3, 12) --> 3, (3, 13) --> 1, (3, 14) --> 2, (3, 15) --> 2,
                 (3, 16) --> 3, (3, 17) --> 1, (3, 18) --> 1, (3, 19) --> 1, (3, 20) --> 3, (3, 21) --> 2,
                 (3, 22) --> 1, (3, 23) --> 2, (3, 24) --> 1, (3, 25) --> 3, (3, 26) --> 2, (3, 27) --> 2,
                 (3, 28) --> 2, (3, 29) --> 1, (3, 30) --> 2, (3, 31) --> 3, (3, 32) --> 1, (3, 33) --> 3,
                 (3, 34) --> 2, (3, 35) --> 2, (3, 36) --> 3, (3, 37) --> 2, (3, 38) --> 1, (3, 39) --> 2,
                 (3, 40) --> 2, (3, 41) --> 2, (4, 1) --> 2, (4, 2) --> 1, (4, 3) --> 1, (4, 4) --> 2, (4, 5) --> 1,
                 (4, 6) --> 1, (4, 7) --> 3, (4, 8) --> 1, (4, 9) --> 2, (4, 10) --> 1, (4, 11) --> 2, (4, 12) --> 2,
                 (4, 13) --> 1, (4, 14) --> 1, (4, 15) --> 2, (4, 16) --> 3, (4, 17) --> 3, (4, 18) --> 1,
                 (4, 19) --> 2, (4, 20) --> 3, (4, 21) --> 3, (4, 22) --> 1, (4, 23) --> 2, (4, 24) --> 3,
                 (4, 25) --> 2, (4, 26) --> 2, (4, 27) --> 2, (4, 28) --> 2, (4, 29) --> 1, (4, 30) --> 1,
                 (4, 31) --> 3, (4, 32) --> 1, (4, 33) --> 1, (4, 34) --> 1, (4, 35) --> 3, (4, 36) --> 2,
                 (4, 37) --> 2, (4, 38) --> 2, (4, 39) --> 1, (4, 40) --> 2, (4, 41) --> 3, (5, 1) --> 1, (5, 2) --> 3,
                 (5, 3) --> 3, (5, 4) --> 2, (5, 5) --> 3, (5, 6) --> 1, (5, 7) --> 1, (5, 8) --> 2, (5, 9) --> 2,
                 (5, 10) --> 3, (5, 11) --> 2, (5, 12) --> 2, (5, 13) --> 3, (5, 14) --> 2, (5, 15) --> 1,
                 (5, 16) --> 3, (5, 17) --> 3, (5, 18) --> 3, (5, 19) --> 1, (5, 20) --> 1, (5, 21) --> 1,
                 (5, 22) --> 3, (5, 23) --> 3, (5, 24) --> 2, (5, 25) --> 3, (5, 26) --> 3, (5, 27) --> 3,
                 (5, 28) --> 1, (5, 29) --> 2, (5, 30) --> 2, (5, 31) --> 2, (5, 32) --> 3, (5, 33) --> 2,
                 (5, 34) --> 1, (5, 35) --> 3, (5, 36) --> 1, (5, 37) --> 1, (5, 38) --> 1, (5, 39) --> 1,
                 (5, 40) --> 3, (5, 41) --> 3, (6, 1) --> 1, (6, 2) --> 2, (6, 3) --> 1, (6, 4) --> 2, (6, 5) --> 1,
                 (6, 6) --> 2, (6, 7) --> 2, (6, 8) --> 2, (6, 9) --> 3, (6, 10) --> 1, (6, 11) --> 1, (6, 12) --> 3,
                 (6, 13) --> 1, (6, 14) --> 3, (6, 15) --> 2, (6, 16) --> 1, (6, 17) --> 1, (6, 18) --> 2,
                 (6, 19) --> 2, (6, 20) --> 2, (6, 21) --> 3, (6, 22) --> 2, (6, 23) --> 3, (6, 24) --> 1,
                 (6, 25) --> 1, (6, 26) --> 1, (6, 27) --> 3, (6, 28) --> 1, (6, 29) --> 3, (6, 30) --> 1,
                 (6, 31) --> 1, (6, 32) --> 1, (6, 33) --> 3, (6, 34) --> 3, (6, 35) --> 3, (6, 36) --> 2,
                 (6, 37) --> 1, (6, 38) --> 2, (6, 39) --> 3, (6, 40) --> 1, (6, 41) --> 2, (7, 1) --> 1, (7, 2) --> 3,
                 (7, 3) --> 3, (7, 4) --> 2, (7, 5) --> 1, (7, 6) --> 3, (7, 7) --> 1, (7, 8) --> 3, (7, 9) --> 1,
                 (7, 10) --> 3, (7, 11) --> 2, (7, 12) --> 2, (7, 13) --> 1, (7, 14) --> 2, (7, 15) --> 1,
                 (7, 16) --> 2, (7, 17) --> 1, (7, 18) --> 3, (7, 19) --> 3, (7, 20) --> 1, (7, 21) --> 3,
                 (7, 22) --> 1, (7, 23) --> 2, (7, 24) --> 2, (7, 25) --> 3, (7, 26) --> 1, (7, 27) --> 1,
                 (7, 28) --> 3, (7, 29) --> 1, (7, 30) --> 1, (7, 31) --> 3, (7, 32) --> 1, (7, 33) --> 2,
                 (7, 34) --> 3, (7, 35) --> 3, (7, 36) --> 1, (7, 37) --> 1, (7, 38) --> 1, (7, 39) --> 2,
                 (7, 40) --> 2, (7, 41) --> 2, (8, 1) --> 3, (8, 2) --> 3, (8, 3) --> 3, (8, 4) --> 2, (8, 5) --> 1,
                 (8, 6) --> 2, (8, 7) --> 1, (8, 8) --> 2, (8, 9) --> 2, (8, 10) --> 1, (8, 11) --> 1, (8, 12) --> 2,
                 (8, 13) --> 3, (8, 14) --> 3, (8, 15) --> 1, (8, 16) --> 3, (8, 17) --> 2, (8, 18) --> 1,
                 (8, 19) --> 3, (8, 20) --> 3, (8, 21) --> 1, (8, 22) --> 1, (8, 23) --> 1, (8, 24) --> 2,
                 (8, 25) --> 1, (8, 26) --> 2, (8, 27) --> 3, (8, 28) --> 3, (8, 29) --> 2, (8, 30) --> 1,
                 (8, 31) --> 2, (8, 32) --> 2, (8, 33) --> 1, (8, 34) --> 3, (8, 35) --> 3, (8, 36) --> 3,
                 (8, 37) --> 3, (8, 38) --> 3, (8, 39) --> 1, (8, 40) --> 3, (8, 41) --> 3, (9, 1) --> 2, (9, 2) --> 1,
                 (9, 3) --> 3, (9, 4) --> 1, (9, 5) --> 3, (9, 6) --> 1, (9, 7) --> 3, (9, 8) --> 3, (9, 9) --> 2,
                 (9, 10) --> 2, (9, 11) --> 2, (9, 12) --> 1, (9, 13) --> 3, (9, 14) --> 3, (9, 15) --> 2,
                 (9, 16) --> 2, (9, 17) --> 2, (9, 18) --> 2, (9, 19) --> 2, (9, 20) --> 2, (9, 21) --> 2,
                 (9, 22) --> 3, (9, 23) --> 1, (9, 24) --> 2, (9, 25) --> 3, (9, 26) --> 1, (9, 27) --> 2,
                 (9, 28) --> 3, (9, 29) --> 1, (9, 30) --> 2, (9, 31) --> 2, (9, 32) --> 2, (9, 33) --> 2,
                 (9, 34) --> 1, (9, 35) --> 2, (9, 36) --> 3, (9, 37) --> 1, (9, 38) --> 1, (9, 39) --> 2,
                 (9, 40) --> 2, (9, 41) --> 1, (10, 1) --> 1, (10, 2) --> 1, (10, 3) --> 1, (10, 4) --> 1,
                 (10, 5) --> 1, (10, 6) --> 3, (10, 7) --> 2, (10, 8) --> 2, (10, 9) --> 1, (10, 10) --> 3,
                 (10, 11) --> 1, (10, 12) --> 2, (10, 13) --> 2, (10, 14) --> 1, (10, 15) --> 2, (10, 16) --> 3,
                 (10, 17) --> 1, (10, 18) --> 3, (10, 19) --> 3, (10, 20) --> 2, (10, 21) --> 1, (10, 22) --> 3,
                 (10, 23) --> 1, (10, 24) --> 3, (10, 25) --> 2, (10, 26) --> 2, (10, 27) --> 3, (10, 28) --> 1,
                 (10, 29) --> 2, (10, 30) --> 2, (10, 31) --> 2, (10, 32) --> 3, (10, 33) --> 3, (10, 34) --> 3,
                 (10, 35) --> 3, (10, 36) --> 1, (10, 37) --> 2, (10, 38) --> 1, (10, 39) --> 3, (10, 40) --> 1,
                 (10, 41) --> 3, (11, 1) --> 1, (11, 2) --> 3, (11, 3) --> 3, (11, 4) --> 1, (11, 5) --> 3,
                 (11, 6) --> 3, (11, 7) --> 2, (11, 8) --> 2, (11, 9) --> 3, (11, 10) --> 3, (11, 11) --> 1,
                 (11, 12) --> 3, (11, 13) --> 2, (11, 14) --> 2, (11, 15) --> 1, (11, 16) --> 2, (11, 17) --> 3,
                 (11, 18) --> 1, (11, 19) --> 1, (11, 20) --> 3, (11, 21) --> 1, (11, 22) --> 3, (11, 23) --> 2,
                 (11, 24) --> 3, (11, 25) --> 3, (11, 26) --> 2, (11, 27) --> 3, (11, 28) --> 1, (11, 29) --> 3,
                 (11, 30) --> 2, (11, 31) --> 1, (11, 32) --> 2, (11, 33) --> 3, (11, 34) --> 1, (11, 35) --> 1,
                 (11, 36) --> 1, (11, 37) --> 3, (11, 38) --> 2, (11, 39) --> 3, (11, 40) --> 1, (11, 41) --> 2,
                 (12, 1) --> 3, (12, 2) --> 1, (12, 3) --> 3, (12, 4) --> 1, (12, 5) --> 1, (12, 6) --> 3,
                 (12, 7) --> 3, (12, 8) --> 2, (12, 9) --> 1, (12, 10) --> 1, (12, 11) --> 3, (12, 12) --> 2,
                 (12, 13) --> 3, (12, 14) --> 1, (12, 15) --> 2, (12, 16) --> 1, (12, 17) --> 2, (12, 18) --> 3,
                 (12, 19) --> 3, (12, 20) --> 1, (12, 21) --> 3, (12, 22) --> 1, (12, 23) --> 3, (12, 24) --> 3,
                 (12, 25) --> 3, (12, 26) --> 1, (12, 27) --> 1, (12, 28) --> 2, (12, 29) --> 3, (12, 30) --> 2,
                 (12, 31) --> 1, (12, 32) --> 3, (12, 33) --> 2, (12, 34) --> 3, (12, 35) --> 1, (12, 36) --> 1,
                 (12, 37) --> 1, (12, 38) --> 3, (12, 39) --> 2, (12, 40) --> 1, (12, 41) --> 2, (13, 1) --> 1,
                 (13, 2) --> 1, (13, 3) --> 3, (13, 4) --> 3, (13, 5) --> 3, (13, 6) --> 3, (13, 7) --> 2,
                 (13, 8) --> 1, (13, 9) --> 2, (13, 10) --> 2, (13, 11) --> 1, (13, 12) --> 1, (13, 13) --> 2,
                 (13, 14) --> 1, (13, 15) --> 2, (13, 16) --> 3, (13, 17) --> 1, (13, 18) --> 3, (13, 19) --> 3,
                 (13, 20) --> 2, (13, 21) --> 1, (13, 22) --> 1, (13, 23) --> 3, (13, 24) --> 3, (13, 25) --> 2,
                 (13, 26) --> 1, (13, 27) --> 2, (13, 28) --> 3, (13, 29) --> 1, (13, 30) --> 1, (13, 31) --> 1,
                 (13, 32) --> 1, (13, 33) --> 1, (13, 34) --> 2, (13, 35) --> 3, (13, 36) --> 3, (13, 37) --> 3,
                 (13, 38) --> 2, (13, 39) --> 3, (13, 40) --> 1, (13, 41) --> 1, (14, 1) --> 1, (14, 2) --> 2,
                 (14, 3) --> 1, (14, 4) --> 1, (14, 5) --> 3, (14, 6) --> 3, (14, 7) --> 1, (14, 8) --> 2,
                 (14, 9) --> 1, (14, 10) --> 3, (14, 11) --> 1, (14, 12) --> 1, (14, 13) --> 2, (14, 14) --> 1,
                 (14, 15) --> 2, (14, 16) --> 3, (14, 17) --> 3, (14, 18) --> 3, (14, 19) --> 2, (14, 20) --> 1,
                 (14, 21) --> 3, (14, 22) --> 2, (14, 23) --> 3, (14, 24) --> 1, (14, 25) --> 2, (14, 26) --> 1,
                 (14, 27) --> 3, (14, 28) --> 2, (14, 29) --> 2, (14, 30) --> 3, (14, 31) --> 2, (14, 32) --> 2,
                 (14, 33) --> 2, (14, 34) --> 1, (14, 35) --> 1, (14, 36) --> 3, (14, 37) --> 3, (14, 38) --> 1,
                 (14, 39) --> 2, (14, 40) --> 1, (14, 41) --> 3, (15, 1) --> 2, (15, 2) --> 3, (15, 3) --> 1,
                 (15, 4) --> 2, (15, 5) --> 1, (15, 6) --> 2, (15, 7) --> 2, (15, 8) --> 1, (15, 9) --> 2,
                 (15, 10) --> 1, (15, 11) --> 2, (15, 12) --> 2, (15, 13) --> 3, (15, 14) --> 2, (15, 15) --> 1,
                 (15, 16) --> 3, (15, 17) --> 3, (15, 18) --> 3, (15, 19) --> 1, (15, 20) --> 1, (15, 21) --> 3,
                 (15, 22) --> 2, (15, 23) --> 3, (15, 24) --> 1, (15, 25) --> 1, (15, 26) --> 3, (15, 27) --> 2,
                 (15, 28) --> 1, (15, 29) --> 2, (15, 30) --> 3, (15, 31) --> 1, (15, 32) --> 3, (15, 33) --> 3,
                 (15, 34) --> 3, (15, 35) --> 2, (15, 36) --> 1, (15, 37) --> 1, (15, 38) --> 3, (15, 39) --> 2,
                 (15, 40) --> 3, (15, 41) --> 1)
letting demand be function(1 --> 34, 2 --> 34, 3 --> 34, 4 --> 34)
letting maxCost be 43
letting n_customer be 4
letting n_transshipment be 41
letting n_warehouses be 15
letting stock be
        function(1 --> 35, 2 --> 35, 3 --> 35, 4 --> 35, 5 --> 35, 6 --> 35, 7 --> 35, 8 --> 35, 9 --> 35, 10 --> 35,
                 11 --> 35, 12 --> 35, 13 --> 35, 14 --> 35, 15 --> 35)
